\* berth *\
Minimize
OBJ: 596 mid_for_y_0 + 420 mid_for_y_1 + 449 mid_for_y_10 + 553 mid_for_y_11
 + 435 mid_for_y_12 + 485 mid_for_y_13 + 547 mid_for_y_14 + 435 mid_for_y_15
 + 500 mid_for_y_16 + 545 mid_for_y_17 + 493 mid_for_y_18 + 549 mid_for_y_19
 + 580 mid_for_y_2 + 447 mid_for_y_3 + 455 mid_for_y_4 + 419 mid_for_y_5
 + 525 mid_for_y_6 + 536 mid_for_y_7 + 510 mid_for_y_8 + 531 mid_for_y_9
 + 401 mid_x_0 + 559 mid_x_1 + 563 mid_x_10 + 482 mid_x_11 + 495 mid_x_12
 + 432 mid_x_13 + 429 mid_x_14 + 444 mid_x_15 + 563 mid_x_16 + 569 mid_x_17
 + 581 mid_x_18 + 463 mid_x_19 + 573 mid_x_2 + 442 mid_x_3 + 477 mid_x_4
 + 412 mid_x_5 + 454 mid_x_6 + 509 mid_x_7 + 523 mid_x_8 + 557 mid_x_9
Subject To
_C1: mid_x_0 >= 0
_C10: - mid_x_1 - x_1 <= -329
_C100: mid_for_y_12 >= 0
_C101: mid_for_y_12 - y_12 >= 0
_C102: x_12 <= 570
_C103: y_12 >= 0
_C104: x_12 >= 0
_C105: mid_x_13 >= 0
_C106: - mid_x_13 - x_13 <= -483
_C107: mid_x_13 - x_13 >= -483
_C108: mid_for_y_13 >= 0
_C109: mid_for_y_13 - y_13 >= -4
_C11: mid_x_1 - x_1 >= -329
_C110: x_13 <= 564
_C111: y_13 >= 4
_C112: x_13 >= 0
_C113: mid_x_14 >= 0
_C114: - mid_x_14 - x_14 <= -306
_C115: mid_x_14 - x_14 >= -306
_C116: mid_for_y_14 >= 0
_C117: mid_for_y_14 - y_14 >= -158
_C118: x_14 <= 550
_C119: y_14 >= 158
_C12: mid_for_y_1 >= 0
_C120: x_14 >= 0
_C121: mid_x_15 >= 0
_C122: - mid_x_15 - x_15 <= -112
_C123: mid_x_15 - x_15 >= -112
_C124: mid_for_y_15 >= 0
_C125: mid_for_y_15 - y_15 >= -197
_C126: x_15 <= 564
_C127: y_15 >= 197
_C128: x_15 >= 0
_C129: mid_x_16 >= 0
_C13: mid_for_y_1 - y_1 >= -61
_C130: - mid_x_16 - x_16 <= -385
_C131: mid_x_16 - x_16 >= -385
_C132: mid_for_y_16 >= 0
_C133: mid_for_y_16 - y_16 >= -132
_C134: x_16 <= 557
_C135: y_16 >= 132
_C136: x_16 >= 0
_C137: mid_x_17 >= 0
_C138: - mid_x_17 - x_17 <= -456
_C139: mid_x_17 - x_17 >= -456
_C14: x_1 <= 559
_C140: mid_for_y_17 >= 0
_C141: mid_for_y_17 - y_17 >= -56
_C142: x_17 <= 552
_C143: y_17 >= 56
_C144: x_17 >= 0
_C145: mid_x_18 >= 0
_C146: - mid_x_18 - x_18 <= -234
_C147: mid_x_18 - x_18 >= -234
_C148: mid_for_y_18 >= 0
_C149: mid_for_y_18 - y_18 >= -85
_C15: y_1 >= 61
_C150: x_18 <= 553
_C151: y_18 >= 85
_C152: x_18 >= 0
_C153: mid_x_19 >= 0
_C154: - mid_x_19 - x_19 <= -102
_C155: mid_x_19 - x_19 >= -102
_C156: mid_for_y_19 >= 0
_C157: mid_for_y_19 - y_19 >= -58
_C158: x_19 <= 560
_C159: y_19 >= 58
_C16: x_1 >= 0
_C160: x_19 >= 0
_C161: - x_4 + x_6 + 100000000 z_x_(6,_4) <= 99999900
_C162: x_4 - x_6 + 100000000 z_x_(4,_6) <= 99999907
_C163: - y_4 + y_6 + 100000000 z_y_(6,_4) <= 99999966
_C164: y_4 - y_6 + 100000000 z_y_(4,_6) <= 99999972
_C165: z_x_(4,_6) + z_x_(6,_4) + z_y_(4,_6) + z_y_(6,_4) >= 1
_C166: - x_4 + x_8 + 100000000 z_x_(8,_4) <= 99999915
_C167: x_4 - x_8 + 100000000 z_x_(4,_8) <= 99999907
_C168: - y_4 + y_8 + 100000000 z_y_(8,_4) <= 99999968
_C169: y_4 - y_8 + 100000000 z_y_(4,_8) <= 99999972
_C17: mid_x_2 >= 0
_C170: z_x_(4,_8) + z_x_(8,_4) + z_y_(4,_8) + z_y_(8,_4) >= 1
_C171: - x_6 + x_8 + 100000000 z_x_(8,_6) <= 99999915
_C172: x_6 - x_8 + 100000000 z_x_(6,_8) <= 99999900
_C173: - y_6 + y_8 + 100000000 z_y_(8,_6) <= 99999968
_C174: y_6 - y_8 + 100000000 z_y_(6,_8) <= 99999966
_C175: z_x_(6,_8) + z_x_(8,_6) + z_y_(6,_8) + z_y_(8,_6) >= 1
_C176: - x_2 + x_9 + 100000000 z_x_(9,_2) <= 99999904
_C177: x_2 - x_9 + 100000000 z_x_(2,_9) <= 99999907
_C178: - y_2 + y_9 + 100000000 z_y_(9,_2) <= 99999970
_C179: y_2 - y_9 + 100000000 z_y_(2,_9) <= 99999966
_C18: - mid_x_2 - x_2 <= -132
_C180: z_x_(2,_9) + z_x_(9,_2) + z_y_(2,_9) + z_y_(9,_2) >= 1
_C181: x_10 - x_2 + 100000000 z_x_(10,_2) <= 99999913
_C182: - x_10 + x_2 + 100000000 z_x_(2,_10) <= 99999907
_C183: y_10 - y_2 + 100000000 z_y_(10,_2) <= 99999970
_C184: - y_10 + y_2 + 100000000 z_y_(2,_10) <= 99999966
_C185: z_x_(10,_2) + z_x_(2,_10) + z_y_(10,_2) + z_y_(2,_10) >= 1
_C186: x_10 - x_9 + 100000000 z_x_(10,_9) <= 99999913
_C187: - x_10 + x_9 + 100000000 z_x_(9,_10) <= 99999904
_C188: y_10 - y_9 + 100000000 z_y_(10,_9) <= 99999970
_C189: - y_10 + y_9 + 100000000 z_y_(9,_10) <= 99999970
_C19: mid_x_2 - x_2 >= -132
_C190: z_x_(10,_9) + z_x_(9,_10) + z_y_(10,_9) + z_y_(9,_10) >= 1
_C191: x_11 - x_5 + 100000000 z_x_(11,_5) <= 99999905
_C192: - x_11 + x_5 + 100000000 z_x_(5,_11) <= 99999905
_C193: y_11 - y_5 + 100000000 z_y_(11,_5) <= 99999974
_C194: - y_11 + y_5 + 100000000 z_y_(5,_11) <= 99999975
_C195: z_x_(11,_5) + z_x_(5,_11) + z_y_(11,_5) + z_y_(5,_11) >= 1
_C196: x_14 - x_9 + 100000000 z_x_(14,_9) <= 99999900
_C197: - x_14 + x_9 + 100000000 z_x_(9,_14) <= 99999904
_C198: y_14 - y_9 + 100000000 z_y_(14,_9) <= 99999971
_C199: - y_14 + y_9 + 100000000 z_y_(9,_14) <= 99999970
_C2: - mid_x_0 - x_0 <= -528
_C20: mid_for_y_2 >= 0
_C200: z_x_(14,_9) + z_x_(9,_14) + z_y_(14,_9) + z_y_(9,_14) >= 1
_C201: - x_14 + x_16 + 100000000 z_x_(16,_14) <= 99999907
_C202: x_14 - x_16 + 100000000 z_x_(14,_16) <= 99999900
_C203: - y_14 + y_16 + 100000000 z_y_(16,_14) <= 99999968
_C204: y_14 - y_16 + 100000000 z_y_(14,_16) <= 99999971
_C205: z_x_(14,_16) + z_x_(16,_14) + z_y_(14,_16) + z_y_(16,_14) >= 1
_C206: x_17 - x_7 + 100000000 z_x_(17,_7) <= 99999902
_C207: - x_17 + x_7 + 100000000 z_x_(7,_17) <= 99999918
_C208: y_17 - y_7 + 100000000 z_y_(17,_7) <= 99999973
_C209: - y_17 + y_7 + 100000000 z_y_(7,_17) <= 99999966
_C21: mid_for_y_2 - y_2 >= -148
_C210: z_x_(17,_7) + z_x_(7,_17) + z_y_(17,_7) + z_y_(7,_17) >= 1
_C211: - x_1 + x_18 + 100000000 z_x_(18,_1) <= 99999903
_C212: x_1 - x_18 + 100000000 z_x_(1,_18) <= 99999909
_C213: - y_1 + y_18 + 100000000 z_y_(18,_1) <= 99999967
_C214: y_1 - y_18 + 100000000 z_y_(1,_18) <= 99999970
_C215: z_x_(1,_18) + z_x_(18,_1) + z_y_(1,_18) + z_y_(18,_1) >= 1
_C216: x_19 - x_6 + 100000000 z_x_(19,_6) <= 99999910
_C217: - x_19 + x_6 + 100000000 z_x_(6,_19) <= 99999900
_C218: y_19 - y_6 + 100000000 z_y_(19,_6) <= 99999968
_C219: - y_19 + y_6 + 100000000 z_y_(6,_19) <= 99999966
_C22: x_2 <= 557
_C220: z_x_(19,_6) + z_x_(6,_19) + z_y_(19,_6) + z_y_(6,_19) >= 1
_C221: x_15 - x_2 + 100000000 z_x_(15,_2) <= 99999914
_C222: - x_15 + x_2 + 100000000 z_x_(2,_15) <= 99999907
_C223: y_15 - y_2 + 100000000 z_y_(15,_2) <= 99999968
_C224: - y_15 + y_2 + 100000000 z_y_(2,_15) <= 99999966
_C225: z_x_(15,_2) + z_x_(2,_15) + z_y_(15,_2) + z_y_(2,_15) >= 1
_C23: y_2 >= 148
_C24: x_2 >= 0
_C25: mid_x_3 >= 0
_C26: - mid_x_3 - x_3 <= -355
_C27: mid_x_3 - x_3 >= -355
_C28: mid_for_y_3 >= 0
_C29: mid_for_y_3 - y_3 >= -7
_C3: mid_x_0 - x_0 >= -528
_C30: x_3 <= 567
_C31: y_3 >= 7
_C32: x_3 >= 0
_C33: mid_x_4 >= 0
_C34: - mid_x_4 - x_4 <= -132
_C35: mid_x_4 - x_4 >= -132
_C36: mid_for_y_4 >= 0
_C37: mid_for_y_4 - y_4 >= -21
_C38: x_4 <= 557
_C39: y_4 >= 21
_C4: mid_for_y_0 >= 0
_C40: x_4 >= 0
_C41: mid_x_5 >= 0
_C42: - mid_x_5 - x_5 <= -474
_C43: mid_x_5 - x_5 >= -474
_C44: mid_for_y_5 >= 0
_C45: mid_for_y_5 - y_5 >= -177
_C46: x_5 <= 555
_C47: y_5 >= 177
_C48: x_5 >= 0
_C49: mid_x_6 >= 0
_C5: mid_for_y_0 - y_0 >= -118
_C50: - mid_x_6 - x_6 <= -130
_C51: mid_x_6 - x_6 >= -130
_C52: mid_for_y_6 >= 0
_C53: mid_for_y_6 - y_6 >= -32
_C54: x_6 <= 550
_C55: y_6 >= 32
_C56: x_6 >= 0
_C57: mid_x_7 >= 0
_C58: - mid_x_7 - x_7 <= -521
_C59: mid_x_7 - x_7 >= -521
_C6: x_0 <= 562
_C60: mid_for_y_7 >= 0
_C61: mid_for_y_7 - y_7 >= -64
_C62: x_7 <= 568
_C63: y_7 >= 64
_C64: x_7 >= 0
_C65: mid_x_8 >= 0
_C66: - mid_x_8 - x_8 <= -218
_C67: mid_x_8 - x_8 >= -218
_C68: mid_for_y_8 >= 0
_C69: mid_for_y_8 - y_8 >= -45
_C7: y_0 >= 118
_C70: x_8 <= 565
_C71: y_8 >= 45
_C72: x_8 >= 0
_C73: mid_x_9 >= 0
_C74: - mid_x_9 - x_9 <= -224
_C75: mid_x_9 - x_9 >= -224
_C76: mid_for_y_9 >= 0
_C77: mid_for_y_9 - y_9 >= -156
_C78: x_9 <= 554
_C79: y_9 >= 156
_C8: x_0 >= 0
_C80: x_9 >= 0
_C81: mid_x_10 >= 0
_C82: - mid_x_10 - x_10 <= -198
_C83: mid_x_10 - x_10 >= -198
_C84: mid_for_y_10 >= 0
_C85: mid_for_y_10 - y_10 >= -139
_C86: x_10 <= 563
_C87: y_10 >= 139
_C88: x_10 >= 0
_C89: mid_x_11 >= 0
_C9: mid_x_1 >= 0
_C90: - mid_x_11 - x_11 <= -486
_C91: mid_x_11 - x_11 >= -486
_C92: mid_for_y_11 >= 0
_C93: mid_for_y_11 - y_11 >= -169
_C94: x_11 <= 555
_C95: y_11 >= 169
_C96: x_11 >= 0
_C97: mid_x_12 >= 0
_C98: - mid_x_12 - x_12 <= -612
_C99: mid_x_12 - x_12 >= -612
Binaries
z_x_(1,_18)
z_x_(10,_2)
z_x_(10,_9)
z_x_(11,_5)
z_x_(14,_16)
z_x_(14,_9)
z_x_(15,_2)
z_x_(16,_14)
z_x_(17,_7)
z_x_(18,_1)
z_x_(19,_6)
z_x_(2,_10)
z_x_(2,_15)
z_x_(2,_9)
z_x_(4,_6)
z_x_(4,_8)
z_x_(5,_11)
z_x_(6,_19)
z_x_(6,_4)
z_x_(6,_8)
z_x_(7,_17)
z_x_(8,_4)
z_x_(8,_6)
z_x_(9,_10)
z_x_(9,_14)
z_x_(9,_2)
z_y_(1,_18)
z_y_(10,_2)
z_y_(10,_9)
z_y_(11,_5)
z_y_(14,_16)
z_y_(14,_9)
z_y_(15,_2)
z_y_(16,_14)
z_y_(17,_7)
z_y_(18,_1)
z_y_(19,_6)
z_y_(2,_10)
z_y_(2,_15)
z_y_(2,_9)
z_y_(4,_6)
z_y_(4,_8)
z_y_(5,_11)
z_y_(6,_19)
z_y_(6,_4)
z_y_(6,_8)
z_y_(7,_17)
z_y_(8,_4)
z_y_(8,_6)
z_y_(9,_10)
z_y_(9,_14)
z_y_(9,_2)
End
